
m = 10;

n = 10;

Amin = 40;

Amax = 50;

B = 1920;

lambda = 20.00;

c = 
[[2,3,4,3,10,5,7,4,8,2],
[9,4,9,4,10,3,8,7,3,7],
[6,8,2,6,8,4,5,4,2,6],
[5,9,7,5,8,7,6,4,7,4],
[3,5,4,10,5,4,2,2,9,4],
[6,5,8,4,7,3,4,8,6,4],
[4,9,10,7,3,7,3,6,10,6],
[8,9,7,10,8,2,10,6,2,9],
[6,4,10,3,7,4,5,9,10,9],
[10,3,5,9,7,4,5,8,8,2]];
